job_count = 25 ;
duration = [|14, 9, 3, 6, 9|15, 21, 12, 15, 2|18, 11, 13, 9, 8|6, 16, 18, 16, 3|13, 6, 3, 11, 8|8, 11, 3, 4, 3|12, 13, 15, 9, 5|13, 5, 3, 5, 6|2, 12, 17, 11, 6|17, 15, 8, 7, 8|3, 4, 6, 10, 4|23, 15, 6, 12, 9|10, 8, 7, 2, 2|23, 5, 7, 17, 7|15, 5, 5, 9, 6|18, 6, 9, 6, 4|4, 10, 2, 4, 8|5, 6, 2, 11, 7|4, 13, 4, 5, 14|24, 12, 17, 2, 5|5, 13, 13, 14, 13|2, 22, 5, 8, 7|21, 10, 7, 2, 4|3, 3, 8, 16, 5|8, 17, 3, 11, 13|] ;
machine_count = 5 ;
cost = [|31, 31, 24, 33, 43|27, 23, 30, 31, 34|27, 19, 39, 29, 48|19, 20, 24, 38, 46|24, 19, 31, 30, 48|30, 26, 29, 37, 33|25, 26, 34, 42, 53|18, 28, 22, 23, 39|27, 20, 37, 35, 50|20, 31, 26, 23, 31|18, 28, 21, 28, 30|17, 29, 31, 31, 49|18, 18, 23, 39, 37|24, 34, 27, 41, 30|23, 31, 23, 39, 27|24, 20, 22, 26, 53|16, 18, 37, 42, 38|30, 25, 27, 33, 34|30, 24, 38, 32, 46|28, 23, 28, 24, 27|19, 20, 33, 29, 28|28, 32, 22, 30, 53|29, 28, 30, 24, 31|29, 25, 34, 45, 31|29, 18, 20, 44, 45|] ;
deadline = [33, 33, 33, 33, 33, 33, 33, 33, 33, 33, 33, 33, 33, 33, 33, 33, 33, 33, 33, 33, 33, 33, 33, 33, 33] ;
release = [0, 0, 0, 0, 0, 0, 0, 0, 0, 0, 0, 0, 0, 0, 0, 0, 0, 0, 0, 0, 0, 0, 0, 0, 0] ;
resource = [|3, 3, 3, 3, 3|4, 4, 4, 4, 4|5, 5, 5, 5, 5|9, 9, 9, 9, 9|2, 2, 2, 2, 2|8, 8, 8, 8, 8|4, 4, 4, 4, 4|6, 6, 6, 6, 6|1, 1, 1, 1, 1|4, 4, 4, 4, 4|3, 3, 3, 3, 3|8, 8, 8, 8, 8|9, 9, 9, 9, 9|6, 6, 6, 6, 6|6, 6, 6, 6, 6|7, 7, 7, 7, 7|9, 9, 9, 9, 9|5, 5, 5, 5, 5|5, 5, 5, 5, 5|6, 6, 6, 6, 6|8, 8, 8, 8, 8|9, 9, 9, 9, 9|7, 7, 7, 7, 7|4, 4, 4, 4, 4|4, 4, 4, 4, 4|] ;
capacities = [10, 10, 10, 10, 10] ;
